# Solution for model r10_t36_m1_0 Batch Number: 2
# Finished Task: 36 / 36
# Makespan: 472.0, Total Distance: 434.0, Total Time: 25.7370
# R O S F Batch
0 0 10 0.0 0.0 -1
1 1 21 0.0 0.0 -1
2 2 33 0.0 0.0 -1
3 3 43 0.0 0.0 -1
4 4 14 0.0 0.0 -1
5 5 19 0.0 0.0 -1
6 6 42 0.0 0.0 -1
7 7 13 0.0 0.0 -1
8 8 28 0.0 0.0 -1
9 9 23 0.0 0.0 -1
10 0 41 234.0 261.0 0
11 6 -1 430.0 451.0 1
12 3 39 190.0 224.0 0
13 7 40 390.0 411.0 0
14 4 31 380.0 411.0 0
15 9 -1 290.0 319.0 1
16 2 30 336.0 360.0 1
17 8 25 385.0 411.0 1
18 3 12 155.0 178.0 0
19 5 45 343.0 369.0 0
20 6 22 108.0 138.0 0
21 1 37 96.0 127.0 0
22 6 11 388.0 411.0 0
23 9 38 142.0 176.0 0
24 3 18 104.0 141.0 0
25 8 -1 420.0 449.0 1
26 4 -1 448.0 472.0 1
27 0 32 321.0 354.0 1
28 8 17 163.0 194.0 0
29 1 35 379.0 411.0 0
30 2 -1 368.0 388.0 1
31 4 26 421.0 448.0 1
32 0 44 367.0 390.0 1
33 2 16 306.0 328.0 0
34 9 15 242.0 276.0 0
35 1 -1 411.0 450.0 1
36 0 -1 435.0 472.0 1
37 1 29 331.0 367.0 0
38 9 34 200.0 227.0 0
39 3 -1 253.0 277.0 1
40 7 -1 449.0 472.0 1
41 0 27 282.0 313.0 0
42 6 20 69.0 108.0 0
43 3 24 56.0 93.0 0
44 0 36 402.0 435.0 1
45 5 -1 369.0 397.0 1
